unsat
(:max-memory          18.03
 :memory              17.90
 :nlsat-conflicts     3
 :nlsat-learned-added 2
 :nlsat-propagations  7
 :nlsat-stages        3
 :num-allocs          5447
 :rlimit-count        1554
 :time                0.00
 :total-time          0.01)
